NAME: PointSet_Angle_40_8
TYPE: TSP
COMMENT: Points chosen discrete uniformly at random out of ${0, \ldots, 500}^2$.
DIMENSION: 40
EDGE_WEIGHT_TYPE: EUC_2D
NODE_COORD_SECTION
1 119 330
2 328 363
3 168 274
4 418 225
5 460 330
6 145 221
7 171 417
8 296 58
9 313 128
10 313 443
11 337 332
12 47 16
13 194 8
14 288 495
15 59 128
16 385 426
17 204 459
18 288 372
19 233 205
20 96 439
21 282 241
22 159 199
23 405 202
24 257 464
25 330 70
26 152 167
27 148 446
28 430 342
29 454 217
30 82 260
31 91 467
32 185 295
33 172 473
34 166 405
35 425 9
36 89 206
37 497 248
38 405 147
39 450 408
40 357 26
EOF
